(set-logic ALL)
(declare-fun var0 () String)
(assert (str.in_re var0 (re.++ (re.* (re.* (str.to_re "00"))) (re.++ (re.+ (re.* (str.to_re "11"))) (re.++ (re.union (re.union (str.to_re "2") (str.to_re "3")) (re.union (str.to_re "44") (str.to_re "555"))) (re.++ (re.* (re.+ (str.to_re "66"))) (re.++ (re.union (re.+ (str.to_re "7")) (re.+ (str.to_re "888"))) (re.++ (re.union (re.union (str.to_re "999") (str.to_re "aa")) (re.union (str.to_re "b") (str.to_re "c"))) (re.++ (re.* (re.* (str.to_re "d"))) (re.++ (re.* (re.* (str.to_re "e"))) (re.++ (re.+ (re.union (str.to_re "fff") (str.to_re "gg"))) (re.+ (re.* (str.to_re "hh"))))))))))))))
(assert (str.in_re var0 (re.++ (re.+ (re.union (str.to_re "00") (str.to_re "1"))) (re.++ (re.+ (re.+ (str.to_re "222"))) (re.++ (re.+ (re.+ (str.to_re "33"))) (re.++ (re.union (re.* (str.to_re "444")) (re.* (str.to_re "55"))) (re.++ (re.+ (re.* (str.to_re "666"))) (re.++ (re.+ (re.+ (str.to_re "777"))) (re.++ (re.* (re.+ (str.to_re "8"))) (re.++ (re.+ (re.* (str.to_re "99"))) (re.++ (re.+ (re.+ (str.to_re "aaa"))) (re.* (re.+ (str.to_re "b"))))))))))))))
(assert (str.in_re var0 (re.++ (re.union (re.union (str.to_re "00") (str.to_re "111")) (re.union (str.to_re "22") (str.to_re "33"))) (re.++ (re.+ (re.+ (str.to_re "4"))) (re.++ (re.+ (re.+ (str.to_re "55"))) (re.++ (re.* (re.union (str.to_re "666") (str.to_re "77"))) (re.++ (re.union (re.union (str.to_re "8") (str.to_re "999")) (re.union (str.to_re "aaa") (str.to_re "bb"))) (re.++ (re.* (re.* (str.to_re "c"))) (re.++ (re.+ (re.+ (str.to_re "ddd"))) (re.++ (re.union (re.+ (str.to_re "eee")) (re.+ (str.to_re "ff"))) (re.++ (re.union (re.+ (str.to_re "ggg")) (re.+ (str.to_re "hhh"))) (re.+ (re.+ (str.to_re "ii"))))))))))))))
(assert (str.in_re var0 (re.++ (re.+ (re.union (str.to_re "0") (str.to_re "11"))) (re.++ (re.union (re.* (str.to_re "222")) (re.* (str.to_re "333"))) (re.++ (re.union (re.+ (str.to_re "44")) (re.+ (str.to_re "55"))) (re.++ (re.union (re.union (str.to_re "666") (str.to_re "777")) (re.union (str.to_re "888") (str.to_re "9"))) (re.++ (re.+ (re.* (str.to_re "a"))) (re.++ (re.+ (re.* (str.to_re "bbb"))) (re.++ (re.* (re.+ (str.to_re "ccc"))) (re.++ (re.+ (re.* (str.to_re "d"))) (re.++ (re.* (re.union (str.to_re "e") (str.to_re "ff"))) (re.+ (re.* (str.to_re "gg"))))))))))))))
(assert (str.in_re var0 (re.++ (re.union (re.+ (str.to_re "0")) (re.+ (str.to_re "11"))) (re.++ (re.union (re.+ (str.to_re "2")) (re.+ (str.to_re "33"))) (re.++ (re.+ (re.+ (str.to_re "4"))) (re.++ (re.union (re.+ (str.to_re "555")) (re.+ (str.to_re "6"))) (re.++ (re.union (re.* (str.to_re "77")) (re.* (str.to_re "888"))) (re.++ (re.* (re.* (str.to_re "9"))) (re.++ (re.* (re.union (str.to_re "aa") (str.to_re "bb"))) (re.++ (re.union (re.* (str.to_re "cc")) (re.* (str.to_re "d"))) (re.++ (re.* (re.+ (str.to_re "eee"))) (re.* (re.* (str.to_re "fff"))))))))))))))
(assert (str.in_re var0 (re.++ (re.+ (re.+ (str.to_re "0"))) (re.++ (re.union (re.+ (str.to_re "111")) (re.+ (str.to_re "222"))) (re.++ (re.+ (re.+ (str.to_re "3"))) (re.++ (re.union (re.+ (str.to_re "444")) (re.+ (str.to_re "555"))) (re.++ (re.union (re.* (str.to_re "6")) (re.* (str.to_re "777"))) (re.++ (re.* (re.* (str.to_re "8"))) (re.++ (re.+ (re.union (str.to_re "9") (str.to_re "aa"))) (re.++ (re.union (re.+ (str.to_re "b")) (re.+ (str.to_re "cc"))) (re.++ (re.+ (re.* (str.to_re "dd"))) (re.union (re.+ (str.to_re "eee")) (re.+ (str.to_re "ff"))))))))))))))
(assert (str.in_re var0 (re.++ (re.union (re.union (str.to_re "000") (str.to_re "11")) (re.union (str.to_re "2") (str.to_re "333"))) (re.++ (re.union (re.* (str.to_re "444")) (re.* (str.to_re "5"))) (re.++ (re.* (re.* (str.to_re "666"))) (re.++ (re.* (re.union (str.to_re "77") (str.to_re "88"))) (re.++ (re.+ (re.+ (str.to_re "999"))) (re.++ (re.+ (re.+ (str.to_re "aaa"))) (re.++ (re.* (re.* (str.to_re "bb"))) (re.++ (re.union (re.+ (str.to_re "c")) (re.+ (str.to_re "d"))) (re.++ (re.* (re.union (str.to_re "e") (str.to_re "fff"))) (re.+ (re.+ (str.to_re "gg"))))))))))))))
(assert (str.in_re var0 (re.++ (re.union (re.* (str.to_re "000")) (re.* (str.to_re "111"))) (re.++ (re.union (re.union (str.to_re "222") (str.to_re "333")) (re.union (str.to_re "4") (str.to_re "555"))) (re.++ (re.union (re.* (str.to_re "666")) (re.* (str.to_re "777"))) (re.++ (re.union (re.union (str.to_re "8") (str.to_re "999")) (re.union (str.to_re "aa") (str.to_re "b"))) (re.++ (re.+ (re.+ (str.to_re "cc"))) (re.++ (re.+ (re.+ (str.to_re "d"))) (re.++ (re.* (re.union (str.to_re "e") (str.to_re "f"))) (re.++ (re.* (re.union (str.to_re "gg") (str.to_re "hh"))) (re.++ (re.union (re.+ (str.to_re "iii")) (re.+ (str.to_re "jjj"))) (re.+ (re.+ (str.to_re "kk"))))))))))))))
(assert (str.in_re var0 (re.++ (re.* (re.union (str.to_re "000") (str.to_re "11"))) (re.++ (re.* (re.union (str.to_re "22") (str.to_re "333"))) (re.++ (re.* (re.+ (str.to_re "4"))) (re.++ (re.+ (re.union (str.to_re "555") (str.to_re "6"))) (re.++ (re.union (re.* (str.to_re "7")) (re.* (str.to_re "888"))) (re.++ (re.* (re.+ (str.to_re "999"))) (re.++ (re.union (re.union (str.to_re "aa") (str.to_re "b")) (re.union (str.to_re "ccc") (str.to_re "dd"))) (re.++ (re.union (re.+ (str.to_re "ee")) (re.+ (str.to_re "ff"))) (re.++ (re.* (re.* (str.to_re "g"))) (re.* (re.union (str.to_re "h") (str.to_re "iii"))))))))))))))
(assert (str.in_re var0 (re.++ (re.+ (re.* (str.to_re "0"))) (re.++ (re.+ (re.+ (str.to_re "11"))) (re.++ (re.union (re.+ (str.to_re "22")) (re.+ (str.to_re "33"))) (re.++ (re.union (re.* (str.to_re "4")) (re.* (str.to_re "5"))) (re.++ (re.union (re.union (str.to_re "666") (str.to_re "7")) (re.union (str.to_re "888") (str.to_re "999"))) (re.++ (re.union (re.union (str.to_re "aa") (str.to_re "bb")) (re.union (str.to_re "ccc") (str.to_re "d"))) (re.++ (re.+ (re.* (str.to_re "e"))) (re.++ (re.+ (re.+ (str.to_re "ff"))) (re.++ (re.+ (re.* (str.to_re "gg"))) (re.union (re.union (str.to_re "h") (str.to_re "iii")) (re.union (str.to_re "jj") (str.to_re "kk"))))))))))))))
(check-sat)